50 9200

29
152
265
379
473
375
179
181
124
201
393
187
257
326
408
163
198
396
447
350
130
29
208
376
277
269
463
35
100
115
82
255
121
397
98
331
156
439
372
384
102
7
46
316
259
141
40
133
151
186
